param sigma
: 1   2 :=
1 0.00001 0.99999
2 0.10000 0.90000
3 0.20000 0.80000
4 0.30000 0.70000
5 0.40000 0.60000
6 0.50000 0.50000
7 0.90000 0.10000
8 0.80000 0.20000
9 0.70000 0.30000
10 0.60000 0.40000
11 0.99999 0.00001
;
set S:=
1 2 3 4 5 6 7 8 9 10 11 12 13 14 15 16 17 18 19 20 21 22 23 24 25 26 27 28 29 30 31 32 33 34 35 36 37 38 39 40 41 42 43 44 45 46 47 48 49 50 51 52 53 54 55 56 57 58 59 60 61 62 63 64 65 66 67 68 69 70 71 72 73 74 75 76 77 78 79 80 81 82 83 84 85 86 87 88 89 90 91 92 93 94 95 96 97 98 99 100 ;

set C:=
1 2 3 4 5 6 7 8 9 10 11 12 13 14 15 16 17 18 19 20 21 22 23 24 25 26 27 28 29 30 31 32 33 34 35 36 37 38 39 40 41 42 43 44 45 46 47 48 49 50 51 52 53 54 55 56 57 58 59 60 ;

set A:=
1_1 1_2 1_3 2_1 2_2 2_3 3_1 3_2 3_3 4_1 4_2 5_1 5_2 5_3 6_1 6_2 6_3 7_1 7_2 8_1 8_2 8_3 9_1 9_2 10_1 10_2 10_3 11_1 11_2 11_3 12_1 12_2 13_1 13_2 13_3 14_1 14_2 14_3 15_1 15_2 15_3 16_1 16_2 17_1 17_2 18_1 18_2 18_3 19_1 19_2 19_3 20_1 20_2 20_3 21_1 21_2 21_3 22_1 22_2 22_3 23_1 23_2 24_1 24_2 24_3 25_1 25_2 26_1 26_2 27_1 27_2 28_1 28_2 29_1 29_2 30_1 30_2 30_3 31_1 31_2 32_1 32_2 32_3 33_1 33_2 34_1 34_2 35_1 35_2 35_3 36_1 36_2 37_1 37_2 37_3 38_1 38_2 39_1 39_2 39_3 40_1 40_2 41_1 41_2 42_1 42_2 43_1 43_2 44_1 44_2 45_1 45_2 45_3 46_1 46_2 47_1 47_2 47_3 48_1 48_2 49_1 49_2 50_1 50_2 51_1 51_2 52_1 52_2 52_3 53_1 53_2 53_3 54_1 54_2 55_1 55_2 55_3 56_1 56_2 56_3 57_1 57_2 57_3 58_1 58_2 59_1 59_2 59_3 60_1 60_2 60_3 ;

set T:=
1_1_2 1_3_4 1_5_6 1_7_8 1_9_10
2_1_2 2_3_4 2_5_6 2_7_8 2_9_10
3_1_2 3_3_4 3_5_6 3_7_8 3_9_10
4_1_2 4_3_4 4_5_6 4_7_8 4_9_10
5_1_2 5_3_4 5_5_6 5_7_8 5_9_10
;

set R:=
1 2 3 4 5 6 7 8 9 10 11 12 13 14 15 16 17 18 19 20 ;

set Ac[1]:=
1_1 1_2 1_3 ;
set Ac[2]:=
2_1 2_2 2_3 ;
set Ac[3]:=
3_1 3_2 3_3 ;
set Ac[4]:=
4_1 4_2 ;
set Ac[5]:=
5_1 5_2 5_3 ;
set Ac[6]:=
6_1 6_2 6_3 ;
set Ac[7]:=
7_1 7_2 ;
set Ac[8]:=
8_1 8_2 8_3 ;
set Ac[9]:=
9_1 9_2 ;
set Ac[10]:=
10_1 10_2 10_3 ;
set Ac[11]:=
11_1 11_2 11_3 ;
set Ac[12]:=
12_1 12_2 ;
set Ac[13]:=
13_1 13_2 13_3 ;
set Ac[14]:=
14_1 14_2 14_3 ;
set Ac[15]:=
15_1 15_2 15_3 ;
set Ac[16]:=
16_1 16_2 ;
set Ac[17]:=
17_1 17_2 ;
set Ac[18]:=
18_1 18_2 18_3 ;
set Ac[19]:=
19_1 19_2 19_3 ;
set Ac[20]:=
20_1 20_2 20_3 ;
set Ac[21]:=
21_1 21_2 21_3 ;
set Ac[22]:=
22_1 22_2 22_3 ;
set Ac[23]:=
23_1 23_2 ;
set Ac[24]:=
24_1 24_2 24_3 ;
set Ac[25]:=
25_1 25_2 ;
set Ac[26]:=
26_1 26_2 ;
set Ac[27]:=
27_1 27_2 ;
set Ac[28]:=
28_1 28_2 ;
set Ac[29]:=
29_1 29_2 ;
set Ac[30]:=
30_1 30_2 30_3 ;
set Ac[31]:=
31_1 31_2 ;
set Ac[32]:=
32_1 32_2 32_3 ;
set Ac[33]:=
33_1 33_2 ;
set Ac[34]:=
34_1 34_2 ;
set Ac[35]:=
35_1 35_2 35_3 ;
set Ac[36]:=
36_1 36_2 ;
set Ac[37]:=
37_1 37_2 37_3 ;
set Ac[38]:=
38_1 38_2 ;
set Ac[39]:=
39_1 39_2 39_3 ;
set Ac[40]:=
40_1 40_2 ;
set Ac[41]:=
41_1 41_2 ;
set Ac[42]:=
42_1 42_2 ;
set Ac[43]:=
43_1 43_2 ;
set Ac[44]:=
44_1 44_2 ;
set Ac[45]:=
45_1 45_2 45_3 ;
set Ac[46]:=
46_1 46_2 ;
set Ac[47]:=
47_1 47_2 47_3 ;
set Ac[48]:=
48_1 48_2 ;
set Ac[49]:=
49_1 49_2 ;
set Ac[50]:=
50_1 50_2 ;
set Ac[51]:=
51_1 51_2 ;
set Ac[52]:=
52_1 52_2 52_3 ;
set Ac[53]:=
53_1 53_2 53_3 ;
set Ac[54]:=
54_1 54_2 ;
set Ac[55]:=
55_1 55_2 55_3 ;
set Ac[56]:=
56_1 56_2 56_3 ;
set Ac[57]:=
57_1 57_2 57_3 ;
set Ac[58]:=
58_1 58_2 ;
set Ac[59]:=
59_1 59_2 59_3 ;
set Ac[60]:=
60_1 60_2 60_3 ;

set Cs[1]:=
11 17 19 27 32 60 ;
set Cs[2]:=
26 41 59 ;
set Cs[3]:=
13 21 32 44 ;
set Cs[4]:=
5 15 32 ;
set Cs[5]:=
18 46 47 52 60 ;
set Cs[6]:=
2 31 41 45 ;
set Cs[7]:=
5 14 50 ;
set Cs[8]:=
5 19 36 59 60 ;
set Cs[9]:=
8 14 41 45 ;
set Cs[10]:=
12 24 25 30 ;
set Cs[11]:=
7 18 32 45 ;
set Cs[12]:=
13 16 34 50 60 ;
set Cs[13]:=
14 42 52 57 59 60 ;
set Cs[14]:=
4 13 29 30 33 44 ;
set Cs[15]:=
6 48 52 53 ;
set Cs[16]:=
4 12 26 47 ;
set Cs[17]:=
13 19 22 37 46 58 ;
set Cs[18]:=
6 21 25 32 33 45 ;
set Cs[19]:=
3 10 22 38 50 51 ;
set Cs[20]:=
21 44 48 ;
set Cs[21]:=
6 25 59 ;
set Cs[22]:=
2 9 39 50 54 57 ;
set Cs[23]:=
5 27 30 59 ;
set Cs[24]:=
19 22 25 27 36 56 ;
set Cs[25]:=
13 19 30 39 57 60 ;
set Cs[26]:=
28 35 42 57 58 ;
set Cs[27]:=
7 17 20 33 56 ;
set Cs[28]:=
12 22 27 56 ;
set Cs[29]:=
1 31 35 60 ;
set Cs[30]:=
8 31 41 55 ;
set Cs[31]:=
40 53 60 ;
set Cs[32]:=
3 22 23 31 44 59 ;
set Cs[33]:=
22 39 40 47 53 ;
set Cs[34]:=
3 30 44 48 ;
set Cs[35]:=
39 40 50 ;
set Cs[36]:=
2 4 42 ;
set Cs[37]:=
35 39 58 ;
set Cs[38]:=
11 26 34 37 46 ;
set Cs[39]:=
3 6 27 37 52 ;
set Cs[40]:=
15 35 40 55 56 ;
set Cs[41]:=
4 6 8 15 37 42 ;
set Cs[42]:=
15 22 32 52 56 59 ;
set Cs[43]:=
1 8 31 34 ;
set Cs[44]:=
3 50 59 ;
set Cs[45]:=
41 43 49 58 ;
set Cs[46]:=
18 19 24 33 ;
set Cs[47]:=
5 45 55 56 ;
set Cs[48]:=
5 9 23 34 ;
set Cs[49]:=
7 12 28 ;
set Cs[50]:=
3 7 19 ;
set Cs[51]:=
6 8 14 26 ;
set Cs[52]:=
3 11 27 ;
set Cs[53]:=
8 13 30 40 48 55 ;
set Cs[54]:=
2 21 37 42 56 ;
set Cs[55]:=
22 24 38 ;
set Cs[56]:=
2 31 39 46 ;
set Cs[57]:=
6 13 55 ;
set Cs[58]:=
8 9 23 24 44 51 ;
set Cs[59]:=
9 19 40 42 56 ;
set Cs[60]:=
11 16 27 32 37 52 ;
set Cs[61]:=
29 32 36 40 47 ;
set Cs[62]:=
24 34 40 52 54 ;
set Cs[63]:=
4 14 16 ;
set Cs[64]:=
18 39 45 ;
set Cs[65]:=
17 21 32 ;
set Cs[66]:=
10 15 30 51 55 ;
set Cs[67]:=
2 27 57 ;
set Cs[68]:=
20 51 54 ;
set Cs[69]:=
4 8 30 ;
set Cs[70]:=
18 19 22 26 36 45 ;
set Cs[71]:=
7 8 32 36 49 56 ;
set Cs[72]:=
10 28 59 ;
set Cs[73]:=
2 15 16 ;
set Cs[74]:=
2 3 5 8 12 26 ;
set Cs[75]:=
14 21 27 33 34 ;
set Cs[76]:=
5 10 33 36 37 ;
set Cs[77]:=
2 19 24 43 ;
set Cs[78]:=
1 17 29 30 52 55 ;
set Cs[79]:=
9 13 14 38 ;
set Cs[80]:=
7 8 13 19 28 31 ;
set Cs[81]:=
29 34 42 ;
set Cs[82]:=
19 21 29 40 ;
set Cs[83]:=
7 9 22 53 ;
set Cs[84]:=
40 45 52 55 56 59 ;
set Cs[85]:=
9 13 23 44 56 ;
set Cs[86]:=
4 12 52 ;
set Cs[87]:=
11 16 18 26 30 ;
set Cs[88]:=
8 11 21 34 42 ;
set Cs[89]:=
19 38 44 49 ;
set Cs[90]:=
22 26 34 51 ;
set Cs[91]:=
19 26 30 46 ;
set Cs[92]:=
13 16 24 34 44 50 ;
set Cs[93]:=
27 29 47 54 ;
set Cs[94]:=
13 19 22 23 ;
set Cs[95]:=
6 9 38 52 ;
set Cs[96]:=
5 14 29 49 60 ;
set Cs[97]:=
18 31 56 ;
set Cs[98]:=
23 34 35 ;
set Cs[99]:=
8 33 52 ;
set Cs[100]:=
8 20 29 39 46 ;

set Ts[1]:=
1_1_2 2_1_2 2_5_6 3_9_10 4_3_4 4_9_10 5_1_2 ;
set Ts[2]:=
1_7_8 2_5_6 2_7_8 5_7_8 ;
set Ts[3]:=
1_9_10 2_1_2 2_9_10 4_7_8 5_3_4 5_5_6 ;
set Ts[4]:=
1_1_2 1_9_10 2_9_10 3_7_8 3_9_10 4_1_2 5_3_4 ;
set Ts[5]:=
1_3_4 2_1_2 4_5_6 5_5_6 ;
set Ts[6]:=
1_5_6 2_7_8 2_9_10 5_9_10 ;
set Ts[7]:=
2_5_6 5_1_2 5_3_4 ;
set Ts[8]:=
2_9_10 3_7_8 5_7_8 ;
set Ts[9]:=
1_3_4 1_5_6 2_7_8 3_7_8 3_9_10 5_3_4 5_7_8 ;
set Ts[10]:=
1_7_8 2_3_4 4_3_4 4_7_8 4_9_10 ;
set Ts[11]:=
1_1_2 1_5_6 1_9_10 3_7_8 4_9_10 5_5_6 5_9_10 ;
set Ts[12]:=
1_7_8 2_9_10 4_1_2 ;
set Ts[13]:=
1_7_8 3_3_4 3_9_10 4_9_10 5_3_4 5_5_6 ;
set Ts[14]:=
2_3_4 2_5_6 4_1_2 4_5_6 5_5_6 ;
set Ts[15]:=
2_1_2 4_9_10 5_5_6 ;
set Ts[16]:=
1_1_2 1_3_4 2_5_6 3_7_8 4_3_4 5_7_8 5_9_10 ;
set Ts[17]:=
3_1_2 3_9_10 5_1_2 ;
set Ts[18]:=
3_3_4 4_5_6 5_1_2 5_5_6 ;
set Ts[19]:=
1_1_2 2_3_4 3_7_8 4_5_6 4_7_8 5_5_6 ;
set Ts[20]:=
2_3_4 2_7_8 3_3_4 4_5_6 4_9_10 5_7_8 ;
set Ts[21]:=
1_3_4 1_7_8 2_7_8 4_1_2 4_5_6 4_7_8 5_1_2 ;
set Ts[22]:=
1_7_8 2_3_4 3_3_4 5_9_10 ;
set Ts[23]:=
1_7_8 2_3_4 2_7_8 3_3_4 4_1_2 4_9_10 5_5_6 ;
set Ts[24]:=
2_1_2 3_7_8 4_5_6 4_7_8 ;
set Ts[25]:=
1_9_10 2_7_8 4_3_4 4_5_6 4_9_10 5_5_6 5_9_10 ;
set Ts[26]:=
1_3_4 2_3_4 2_5_6 2_9_10 3_5_6 3_7_8 5_9_10 ;
set Ts[27]:=
2_1_2 2_5_6 4_1_2 4_5_6 4_9_10 5_7_8 ;
set Ts[28]:=
1_9_10 2_1_2 3_5_6 4_1_2 4_3_4 5_1_2 5_7_8 ;
set Ts[29]:=
1_1_2 2_1_2 2_5_6 2_9_10 3_1_2 3_5_6 5_7_8 ;
set Ts[30]:=
2_3_4 3_7_8 5_7_8 ;
set Ts[31]:=
1_5_6 2_7_8 3_5_6 ;
set Ts[32]:=
1_1_2 3_9_10 4_1_2 5_7_8 5_9_10 ;
set Ts[33]:=
2_3_4 2_7_8 4_5_6 5_3_4 5_7_8 ;
set Ts[34]:=
1_7_8 2_5_6 3_1_2 3_5_6 4_9_10 5_9_10 ;
set Ts[35]:=
2_5_6 2_9_10 3_5_6 5_1_2 5_3_4 5_9_10 ;
set Ts[36]:=
2_5_6 2_9_10 4_3_4 4_9_10 5_7_8 5_9_10 ;
set Ts[37]:=
1_3_4 1_5_6 1_9_10 2_9_10 4_1_2 ;
set Ts[38]:=
1_1_2 1_3_4 1_5_6 2_9_10 ;
set Ts[39]:=
1_1_2 1_5_6 2_9_10 3_1_2 ;
set Ts[40]:=
1_9_10 2_3_4 3_9_10 5_1_2 ;
set Ts[41]:=
1_3_4 1_9_10 3_3_4 5_5_6 ;
set Ts[42]:=
1_7_8 3_1_2 3_9_10 4_1_2 5_3_4 ;
set Ts[43]:=
1_1_2 3_7_8 5_3_4 ;
set Ts[44]:=
1_1_2 1_5_6 2_7_8 4_7_8 5_3_4 5_9_10 ;
set Ts[45]:=
1_7_8 1_9_10 2_3_4 5_9_10 ;
set Ts[46]:=
1_7_8 1_9_10 2_5_6 3_1_2 3_7_8 4_5_6 5_1_2 ;
set Ts[47]:=
2_3_4 2_7_8 3_3_4 3_7_8 3_9_10 ;
set Ts[48]:=
1_3_4 2_5_6 2_7_8 3_3_4 3_9_10 5_5_6 5_7_8 ;
set Ts[49]:=
2_1_2 2_5_6 3_7_8 4_3_4 4_5_6 5_1_2 5_3_4 ;
set Ts[50]:=
2_5_6 3_1_2 3_3_4 3_5_6 5_1_2 ;
set Ts[51]:=
3_1_2 4_1_2 4_7_8 ;
set Ts[52]:=
1_5_6 5_5_6 5_7_8 5_9_10 ;
set Ts[53]:=
1_1_2 3_7_8 3_9_10 4_9_10 5_1_2 ;
set Ts[54]:=
1_3_4 1_5_6 1_9_10 2_3_4 2_5_6 2_9_10 4_7_8 ;
set Ts[55]:=
1_5_6 1_7_8 2_7_8 3_7_8 3_9_10 4_7_8 5_9_10 ;
set Ts[56]:=
1_5_6 2_1_2 2_5_6 5_5_6 ;
set Ts[57]:=
3_1_2 3_3_4 3_5_6 4_7_8 5_1_2 ;
set Ts[58]:=
1_1_2 4_3_4 5_5_6 ;
set Ts[59]:=
2_3_4 3_7_8 4_7_8 4_9_10 5_1_2 ;
set Ts[60]:=
1_1_2 1_7_8 3_3_4 3_7_8 3_9_10 4_9_10 5_3_4 ;
set Ts[61]:=
1_1_2 3_9_10 4_5_6 4_9_10 ;
set Ts[62]:=
2_1_2 2_5_6 3_5_6 5_7_8 ;
set Ts[63]:=
1_1_2 3_3_4 3_5_6 3_7_8 4_9_10 5_5_6 5_7_8 ;
set Ts[64]:=
2_5_6 2_7_8 4_7_8 5_5_6 ;
set Ts[65]:=
3_1_2 4_1_2 4_3_4 4_5_6 4_7_8 5_7_8 5_9_10 ;
set Ts[66]:=
1_1_2 3_9_10 5_3_4 ;
set Ts[67]:=
2_5_6 3_3_4 3_7_8 4_5_6 ;
set Ts[68]:=
1_3_4 1_5_6 1_7_8 2_9_10 4_5_6 ;
set Ts[69]:=
1_1_2 5_5_6 5_9_10 ;
set Ts[70]:=
1_3_4 2_1_2 2_7_8 3_1_2 3_9_10 ;
set Ts[71]:=
3_1_2 4_3_4 5_3_4 ;
set Ts[72]:=
1_9_10 2_1_2 3_9_10 5_7_8 ;
set Ts[73]:=
1_5_6 2_3_4 2_5_6 3_9_10 4_5_6 5_7_8 5_9_10 ;
set Ts[74]:=
1_1_2 3_7_8 4_3_4 4_9_10 5_5_6 ;
set Ts[75]:=
1_3_4 3_1_2 3_3_4 3_9_10 4_9_10 5_1_2 5_3_4 ;
set Ts[76]:=
1_1_2 2_5_6 4_3_4 5_1_2 5_9_10 ;
set Ts[77]:=
2_3_4 2_9_10 3_7_8 3_9_10 5_1_2 5_9_10 ;
set Ts[78]:=
1_3_4 1_5_6 1_7_8 3_1_2 4_7_8 5_1_2 5_3_4 ;
set Ts[79]:=
1_3_4 2_5_6 2_7_8 3_7_8 4_7_8 5_3_4 5_9_10 ;
set Ts[80]:=
1_1_2 3_7_8 4_5_6 ;
set Ts[81]:=
2_5_6 4_1_2 4_3_4 5_7_8 ;
set Ts[82]:=
2_7_8 2_9_10 3_9_10 4_3_4 5_1_2 5_3_4 5_5_6 ;
set Ts[83]:=
1_7_8 2_7_8 4_9_10 5_1_2 ;
set Ts[84]:=
1_1_2 1_9_10 2_5_6 2_9_10 4_3_4 ;
set Ts[85]:=
1_3_4 1_5_6 1_9_10 3_3_4 5_5_6 5_7_8 ;
set Ts[86]:=
1_1_2 2_5_6 3_9_10 4_5_6 ;
set Ts[87]:=
1_1_2 3_1_2 4_9_10 5_3_4 5_7_8 ;
set Ts[88]:=
1_9_10 2_1_2 5_7_8 ;
set Ts[89]:=
2_5_6 2_9_10 3_7_8 4_5_6 5_3_4 ;
set Ts[90]:=
1_3_4 1_5_6 2_9_10 3_3_4 3_5_6 4_1_2 5_3_4 ;
set Ts[91]:=
1_9_10 2_5_6 3_1_2 4_1_2 5_3_4 5_5_6 5_9_10 ;
set Ts[92]:=
3_1_2 4_1_2 4_5_6 ;
set Ts[93]:=
3_1_2 4_3_4 5_1_2 ;
set Ts[94]:=
1_1_2 1_5_6 3_5_6 3_7_8 4_3_4 4_7_8 4_9_10 ;
set Ts[95]:=
2_7_8 2_9_10 3_5_6 5_1_2 5_7_8 ;
set Ts[96]:=
3_1_2 5_1_2 5_7_8 5_9_10 ;
set Ts[97]:=
2_1_2 3_5_6 4_5_6 5_3_4 ;
set Ts[98]:=
1_3_4 2_3_4 2_5_6 2_7_8 3_1_2 3_3_4 4_3_4 ;
set Ts[99]:=
1_7_8 2_7_8 4_1_2 4_5_6 4_7_8 5_3_4 5_9_10 ;
set Ts[100]:=
1_5_6 3_7_8 5_5_6 ;

param rho:=
1 100
2 100
3 100
4 100
5 100
6 100
7 100
8 100
9 100
10 100
11 100
12 100
13 100
14 100
15 100
16 100
17 100
18 100
19 100
20 100
;

param sigma_class:=
1 100
2 100
3 100
4 100
5 100
6 100
7 100
8 100
9 100
10 100
11 100
12 100
13 100
14 100
15 100
16 100
17 100
18 100
19 100
20 100
21 100
22 100
23 100
24 100
25 100
26 100
27 100
28 100
29 100
30 100
31 100
32 100
33 100
34 100
35 100
36 100
37 100
38 100
39 100
40 100
41 100
42 100
43 100
44 100
45 100
46 100
47 100
48 100
49 100
50 100
51 100
52 100
53 100
54 100
55 100
56 100
57 100
58 100
59 100
60 100
;

param kmin:=
1 3
2 1
3 2
4 1
5 2
6 2
7 1
8 2
9 2
10 2
11 2
12 2
13 3
14 3
15 2
16 2
17 3
18 3
19 3
20 1
21 1
22 3
23 2
24 3
25 3
26 2
27 2
28 2
29 2
30 2
31 1
32 3
33 2
34 2
35 1
36 1
37 1
38 2
39 2
40 2
41 3
42 3
43 2
44 1
45 2
46 2
47 2
48 2
49 1
50 1
51 2
52 1
53 3
54 2
55 1
56 2
57 1
58 3
59 2
60 3
61 2
62 2
63 1
64 1
65 1
66 2
67 1
68 1
69 1
70 3
71 3
72 1
73 1
74 3
75 2
76 2
77 2
78 3
79 2
80 3
81 1
82 2
83 2
84 3
85 2
86 1
87 2
88 2
89 2
90 2
91 2
92 3
93 2
94 2
95 2
96 2
97 1
98 1
99 1
100 2
;

param kmax:=
1 6
2 3
3 4
4 3
5 5
6 4
7 3
8 5
9 4
10 4
11 4
12 5
13 6
14 6
15 4
16 4
17 6
18 6
19 6
20 3
21 3
22 6
23 4
24 6
25 6
26 5
27 5
28 4
29 4
30 4
31 3
32 6
33 5
34 4
35 3
36 3
37 3
38 5
39 5
40 5
41 6
42 6
43 4
44 3
45 4
46 4
47 4
48 4
49 3
50 3
51 4
52 3
53 6
54 5
55 3
56 4
57 3
58 6
59 5
60 6
61 5
62 5
63 3
64 3
65 3
66 5
67 3
68 3
69 3
70 6
71 6
72 3
73 3
74 6
75 5
76 5
77 4
78 6
79 4
80 6
81 3
82 4
83 4
84 6
85 5
86 3
87 5
88 5
89 4
90 4
91 4
92 6
93 4
94 4
95 4
96 5
97 3
98 3
99 3
100 5
;

